n_machines = 10;
n_resources = 15;
n_jobs = 34;
horizon = 17911;
LB = 2813;
n_jobs_per_resource = [2, 3, 4, 1, 2, 1, 1, 2, 2, 1, 2, 4, 4, 3, 2];
duration = [682, 836, 155, 246, 41, 570, 563, 720, 960, 456, 927, 959, 455, 63, 828, 311, 52, 575, 590, 379, 576, 945, 844, 43, 27, 907, 278, 585, 826, 745, 715, 303, 305, 444]